NAME : d198
COMMENT : Drilling problem (Reinelt)
TYPE : TSP
DIMENSION : 14
EDGE_WEIGHT_TYPE : EUC_2D
NODE_COORD_SECTION
1 0.00000e+00 0.00000e+00
2 5.51200e+02 9.96400e+02
3 6.27400e+02 9.96400e+02
4 7.03600e+02 9.96400e+02
5 7.03600e+02 1.04720e+03
6 6.27400e+02 1.04720e+03
7 5.51200e+02 1.04720e+03
8 8.81400e+02 1.35200e+03
9 9.32200e+02 1.35200e+03
10 9.57600e+02 1.35200e+03
11 9.83000e+02 1.35200e+03
12 1.00840e+03 1.35200e+03
13 1.03380e+03 1.35200e+03
14 1.31320e+03 1.12340e+03
EOF
